
Gurobi 9.0.1 (linux64) logging started Thu Apr 30 06:26:01 2020

Gurobi Optimizer version 9.0.1 build v9.0.1rc0 (linux64)
Optimize a model with 1946 rows, 2120 columns and 19536 nonzeros
Model fingerprint: 0x4b8ddf31
Variable types: 0 continuous, 2120 integer (2106 binary)
Coefficient statistics:
  Matrix range     [1e+00, 7e+00]
  Objective range  [3e+00, 1e+02]
  Bounds range     [1e+00, 1e+00]
  RHS range        [1e+00, 1e+00]

User MIP start produced solution with objective 571 (0.01s)
Loaded user MIP start with objective 571

Presolve removed 392 rows and 624 columns
Presolve time: 0.09s
Presolved: 1554 rows, 1496 columns, 15080 nonzeros
Variable types: 0 continuous, 1496 integer (1484 binary)

Root relaxation: objective 4.004499e+02, 1451 iterations, 0.16 seconds

    Nodes    |    Current Node    |     Objective Bounds      |     Work
 Expl Unexpl |  Obj  Depth IntInf | Incumbent    BestBd   Gap | It/Node Time

     0     0  400.44989    0  600  571.00000  400.44989  29.9%     -    0s
     0     0  445.80412    0  576  571.00000  445.80412  21.9%     -    0s
     0     0  446.78248    0  587  571.00000  446.78248  21.8%     -    1s
     0     0  446.81106    0  582  571.00000  446.81106  21.7%     -    1s
     0     0  446.81328    0  581  571.00000  446.81328  21.7%     -    1s
     0     0  464.65721    0  619  571.00000  464.65721  18.6%     -    1s
     0     0  464.99252    0  614  571.00000  464.99252  18.6%     -    1s
     0     0  465.00911    0  619  571.00000  465.00911  18.6%     -    1s
     0     0  476.85818    0  632  571.00000  476.85818  16.5%     -    2s
     0     0  476.99977    0  633  571.00000  476.99977  16.5%     -    2s
     0     0  477.01957    0  632  571.00000  477.01957  16.5%     -    2s
     0     0  481.52244    0  636  571.00000  481.52244  15.7%     -    3s
     0     0  482.38915    0  632  571.00000  482.38915  15.5%     -    3s
     0     0  482.56183    0  638  571.00000  482.56183  15.5%     -    3s
     0     0  482.71352    0  645  571.00000  482.71352  15.5%     -    3s
     0     0  482.72158    0  643  571.00000  482.72158  15.5%     -    3s
     0     0  483.84161    0  636  571.00000  483.84161  15.3%     -    3s
     0     0  483.95002    0  639  571.00000  483.95002  15.2%     -    3s
     0     0  483.96777    0  637  571.00000  483.96777  15.2%     -    3s
     0     0  485.25714    0  641  571.00000  485.25714  15.0%     -    4s
     0     0  485.37824    0  648  571.00000  485.37824  15.0%     -    4s
     0     0  485.41010    0  643  571.00000  485.41010  15.0%     -    4s
     0     0  486.97747    0  639  571.00000  486.97747  14.7%     -    4s
     0     0  487.38537    0  630  571.00000  487.38537  14.6%     -    4s
     0     0  487.42353    0  636  571.00000  487.42353  14.6%     -    4s
     0     0  487.96193    0  633  571.00000  487.96193  14.5%     -    4s
     0     0  488.09647    0  632  571.00000  488.09647  14.5%     -    4s
     0     0  488.12260    0  639  571.00000  488.12260  14.5%     -    4s
     0     0  488.72509    0  647  571.00000  488.72509  14.4%     -    5s
     0     0  488.79690    0  644  571.00000  488.79690  14.4%     -    5s
     0     0  488.80315    0  645  571.00000  488.80315  14.4%     -    5s
     0     0  488.99431    0  640  571.00000  488.99431  14.4%     -    5s
     0     0  488.99431    0  640  571.00000  488.99431  14.4%     -    5s
     0     0  488.99683    0  585  571.00000  488.99683  14.4%     -    6s
     0     0  488.99683    0  612  571.00000  488.99683  14.4%     -    7s
     0     0  489.71776    0  633  571.00000  489.71776  14.2%     -    7s
     0     0  490.87412    0  629  571.00000  490.87412  14.0%     -    7s
     0     0  490.91997    0  626  571.00000  490.91997  14.0%     -    7s
     0     0  490.93241    0  630  571.00000  490.93241  14.0%     -    7s
     0     0  491.36658    0  629  571.00000  491.36658  13.9%     -    8s
     0     0  491.40436    0  630  571.00000  491.40436  13.9%     -    8s
     0     0  493.09698    0  628  571.00000  493.09698  13.6%     -    8s
     0     0  493.15138    0  624  571.00000  493.15138  13.6%     -    8s
     0     0  494.33579    0  635  571.00000  494.33579  13.4%     -    9s
     0     0  494.59745    0  632  571.00000  494.59745  13.4%     -    9s
     0     0  494.70572    0  642  571.00000  494.70572  13.4%     -    9s
     0     0  494.78777    0  644  571.00000  494.78777  13.3%     -    9s
     0     0  494.79944    0  645  571.00000  494.79944  13.3%     -    9s
     0     0  494.99060    0  634  571.00000  494.99060  13.3%     -    9s
     0     0  494.99060    0  634  571.00000  494.99060  13.3%     -   10s
     0     2  495.01455    0  634  571.00000  495.01455  13.3%     -   10s
    14    16  538.19030    7  556  571.00000  504.23217  11.7%  1139   15s
    49    33  547.80382    8  520  571.00000  511.94950  10.3%   721   20s
    96    52  559.62645    4  490  571.00000  512.41511  10.3%   590   25s
   144    78  539.06746   14  355  571.00000  512.64613  10.2%   540   30s
   190    96  567.20389   15  390  571.00000  516.38567  9.56%   548   35s
   250   106  552.12760   11  379  571.00000  519.55262  9.01%   510   40s
   313   119  566.29051   20  325  571.00000  525.27455  8.01%   480   45s
   369   127     cutoff   10       571.00000  526.31816  7.83%   467   50s
   437   135  551.04829    7  368  571.00000  526.86706  7.73%   445   55s
   494   138     cutoff    8       571.00000  528.89595  7.37%   437   60s
   562   154  557.23994   11  444  571.00000  530.97354  7.01%   424   65s
   617   173  568.88952   24  405  571.00000  531.94851  6.84%   420   70s
   666   183  566.69696   21  383  571.00000  532.67415  6.71%   421   75s
   726   183  553.05440   22  349  571.00000  533.78258  6.52%   414   80s
   785   180  562.03646   12  504  571.00000  535.37114  6.24%   409   85s
   833   178     cutoff   24       571.00000  536.13529  6.11%   413   90s
   887   176  554.51087   13  562  571.00000  539.06746  5.59%   410   95s
   940   177  564.47433    7  354  571.00000  540.98940  5.26%   407  100s
   986   181  543.33990    5  416  571.00000  541.90192  5.10%   409  105s
  1028   181  567.61160   13  419  571.00000  542.29086  5.03%   408  110s
  1084   175  553.98110   15  453  571.00000  543.72938  4.78%   406  116s
  1117   173  562.72924    9  483  571.00000  545.71294  4.43%   404  120s
  1190   168  555.77277   15  352  571.00000  547.16426  4.17%   400  125s
  1285   157  569.96552   15  337  571.00000  551.43418  3.43%   391  130s
  1378   133  557.18529   10  506  571.00000  553.60088  3.05%   382  135s
  1451   112  558.65406   10  498  571.00000  555.08469  2.79%   377  140s
  1555    66  565.51968   10  490  571.00000  559.69402  1.98%   365  145s
  1628    21  568.65806    8  484  571.00000  564.89968  1.07%   358  150s

Cutting planes:
  Gomory: 2
  Cover: 2
  MIR: 18
  GUB cover: 1
  Inf proof: 5
  Zero half: 46
  RLT: 562

Explored 1654 nodes (600611 simplex iterations) in 150.39 seconds
Thread count was 1 (of 40 available processors)

Solution count 1: 571 

Optimal solution found (tolerance 1.00e-04)
Best objective 5.710000000000e+02, best bound 5.710000000000e+02, gap 0.0000%

User-callback calls 11832, time in user-callback 0.01 sec
